nNurses = 95;
nHours = 30;
minHours = 10;
maxHours = 14;
maxConsec = 6;
maxPresence = 20;
demand = [34, 35, 30, 32, 30, 35, 37, 37, 41, 38, 43, 39, 39, 39, 41, 44, 41, 38, 34, 34, 29, 30, 32, 33, 33, 34, 34, 31, 34, 38];
